15989.0
1 1 1 1 1 1 1 1 1 1 0 1 1 1 1 1 1 1 0 1 1 1 1 0 1 1 1 1 1 1 
21 38 40 46 58 60 67 125 128 130 140 
111 
3 6 20 90 96 97 104 112 148 
14 23 
87 
5 18 22 24 28 30 53 61 68 89 95 120 126 133 137 147 149 
32 71 
81 136 
12 25 43 49 75 100 121 134 141 144 
7 66 69 127 

1 19 57 63 64 65 72 93 107 113 114 131 
129 
2 47 54 82 123 
8 15 16 39 41 45 51 52 59 78 108 110 135 143 
37 42 
11 99 124 
9 17 56 73 83 84 85 86 92 94 101 102 106 139 

26 
0 4 13 34 35 55 62 70 77 80 88 138 142 
98 115 
10 

27 29 36 44 74 79 91 116 117 118 119 132 
31 33 103 122 145 146 
76 
48 
109 
50 105 
